\ Model MaxQBF
\ LP format - for model browsing. Use MPS format to capture full model detail.
Maximize
 [ 6 x[0] ^2 + 4 x[0] * x[1] + 14 x[0] * x[2] - 8 x[0] * x[3]
   + 2 x[0] * x[4] + 2 x[0] * x[5] - 18 x[0] * x[6] - 16 x[0] * x[7]
   - 6 x[0] * x[8] + 20 x[0] * x[9] - 10 x[0] * x[10] + 8 x[0] * x[11]
   - 10 x[0] * x[12] + 10 x[0] * x[13] - 16 x[0] * x[14] + 2 x[0] * x[15]
   + 18 x[0] * x[16] + 8 x[0] * x[17] - 18 x[0] * x[18] - 2 x[0] * x[20]
   + 14 x[0] * x[21] + 18 x[0] * x[22] - 4 x[0] * x[23] - 2 x[0] * x[24]
   + 12 x[0] * x[25] + 10 x[0] * x[26] + 20 x[0] * x[27] - 14 x[0] * x[28]
   - 16 x[0] * x[29] - 10 x[0] * x[30] + 14 x[0] * x[31] + 8 x[0] * x[32]
   - 16 x[0] * x[33] - 16 x[0] * x[34] - 10 x[0] * x[35] + 6 x[0] * x[36]
   - 12 x[0] * x[37] - 6 x[0] * x[38] - 20 x[0] * x[39] + 18 x[1] ^2
   + 8 x[1] * x[2] + 14 x[1] * x[3] - 14 x[1] * x[4] + 12 x[1] * x[5]
   - 10 x[1] * x[6] + 12 x[1] * x[7] + 8 x[1] * x[8] + 8 x[1] * x[9]
   + 8 x[1] * x[10] - 16 x[1] * x[11] - 18 x[1] * x[12] - 6 x[1] * x[13]
   + 2 x[1] * x[14] - 6 x[1] * x[15] + 14 x[1] * x[16] - 4 x[1] * x[17]
   + 16 x[1] * x[18] + 14 x[1] * x[19] - 4 x[1] * x[20] + 6 x[1] * x[21]
   + 2 x[1] * x[22] + 6 x[1] * x[23] + 20 x[1] * x[24] + 12 x[1] * x[25]
   + 14 x[1] * x[26] - 20 x[1] * x[27] + 10 x[1] * x[28] - 12 x[1] * x[29]
   - 8 x[1] * x[30] + 2 x[1] * x[31] - 14 x[1] * x[32] - 20 x[1] * x[33]
   - 4 x[1] * x[34] - 6 x[1] * x[35] + 12 x[1] * x[36] + 8 x[1] * x[37]
   - 16 x[1] * x[38] - 2 x[1] * x[39] + 4 x[2] ^2 + 18 x[2] * x[3]
   - 6 x[2] * x[4] - 18 x[2] * x[5] - 10 x[2] * x[6] - 2 x[2] * x[7]
   + 6 x[2] * x[8] - 4 x[2] * x[9] + 2 x[2] * x[10] + 10 x[2] * x[11]
   - 12 x[2] * x[12] - 2 x[2] * x[13] + 8 x[2] * x[14] - 4 x[2] * x[15]
   + 6 x[2] * x[16] - 12 x[2] * x[17] + 16 x[2] * x[18] + 20 x[2] * x[19]
   - 18 x[2] * x[20] + 8 x[2] * x[21] - 12 x[2] * x[22] + 2 x[2] * x[23]
   - 14 x[2] * x[24] + 14 x[2] * x[25] + 8 x[2] * x[26] - 6 x[2] * x[27]
   - 8 x[2] * x[28] + 18 x[2] * x[29] + 20 x[2] * x[30] - 6 x[2] * x[31]
   - 8 x[2] * x[32] + 4 x[2] * x[33] - 10 x[2] * x[34] + 6 x[2] * x[35]
   + 6 x[2] * x[36] - 16 x[2] * x[38] - 10 x[2] * x[39] - 20 x[3] ^2
   - 6 x[3] * x[4] - 14 x[3] * x[5] - 8 x[3] * x[6] - 6 x[3] * x[7]
   + 20 x[3] * x[8] - 14 x[3] * x[9] - 16 x[3] * x[10] + 8 x[3] * x[11]
   - 2 x[3] * x[12] + 6 x[3] * x[13] - 2 x[3] * x[14] + 14 x[3] * x[15]
   - 14 x[3] * x[16] + 10 x[3] * x[17] - 2 x[3] * x[18] - 2 x[3] * x[19]
   - 10 x[3] * x[20] + 10 x[3] * x[21] + 16 x[3] * x[22] + 18 x[3] * x[23]
   + 6 x[3] * x[24] + 12 x[3] * x[25] - 18 x[3] * x[26] + 10 x[3] * x[27]
   - 4 x[3] * x[28] - 10 x[3] * x[29] + 6 x[3] * x[30] - 10 x[3] * x[31]
   + 10 x[3] * x[32] + 8 x[3] * x[33] - 10 x[3] * x[34] - 18 x[3] * x[35]
   + 14 x[3] * x[36] + 4 x[3] * x[37] - 4 x[3] * x[38] + 14 x[3] * x[39]
   + 6 x[4] ^2 + 20 x[4] * x[5] + 4 x[4] * x[6] + 14 x[4] * x[7]
   - 18 x[4] * x[8] + 6 x[4] * x[9] - 6 x[4] * x[10] + 20 x[4] * x[11]
   - 12 x[4] * x[12] + 6 x[4] * x[13] + 16 x[4] * x[14] + 20 x[4] * x[15]
   + 6 x[4] * x[16] + 8 x[4] * x[17] + 6 x[4] * x[18] - 18 x[4] * x[19]
   + 2 x[4] * x[20] + 16 x[4] * x[21] - 6 x[4] * x[22] + 8 x[4] * x[23]
   - 6 x[4] * x[24] + 14 x[4] * x[25] + 12 x[4] * x[26] + 12 x[4] * x[27]
   + 8 x[4] * x[28] + 20 x[4] * x[29] + 20 x[4] * x[30] + 6 x[4] * x[32]
   + 12 x[4] * x[33] - 16 x[4] * x[34] - 8 x[4] * x[35] + 10 x[4] * x[36]
   + 10 x[4] * x[37] - 14 x[4] * x[38] + 14 x[4] * x[39] - 18 x[5] ^2
   - 20 x[5] * x[6] - 14 x[5] * x[7] - 18 x[5] * x[8] + 6 x[5] * x[9]
   - 12 x[5] * x[10] - 4 x[5] * x[12] - 16 x[5] * x[13] + 14 x[5] * x[14]
   - 8 x[5] * x[15] - 12 x[5] * x[16] + 14 x[5] * x[17] + 4 x[5] * x[18]
   - 4 x[5] * x[19] - 10 x[5] * x[20] - 20 x[5] * x[21] - 10 x[5] * x[22]
   - 16 x[5] * x[23] + 6 x[5] * x[24] - 4 x[5] * x[25] - 18 x[5] * x[26]
   - 14 x[5] * x[27] + 14 x[5] * x[28] - 6 x[5] * x[29] - 4 x[5] * x[30]
   - 4 x[5] * x[31] - 10 x[5] * x[32] - 16 x[5] * x[33] - 4 x[5] * x[34]
   - 14 x[5] * x[35] - 14 x[5] * x[36] - 4 x[5] * x[37] - 6 x[5] * x[38]
   - 10 x[5] * x[39] - 18 x[6] ^2 - 2 x[6] * x[7] + 10 x[6] * x[8]
   - 6 x[6] * x[9] + 6 x[6] * x[10] + 6 x[6] * x[11] + 20 x[6] * x[12]
   - 18 x[6] * x[13] - 12 x[6] * x[14] + 20 x[6] * x[15] - 18 x[6] * x[16]
   + 4 x[6] * x[17] + 20 x[6] * x[18] - 20 x[6] * x[19] + 14 x[6] * x[20]
   - 14 x[6] * x[21] + 12 x[6] * x[22] - 8 x[6] * x[23] + 18 x[6] * x[24]
   + 10 x[6] * x[25] - 10 x[6] * x[26] - 6 x[6] * x[27] - 10 x[6] * x[28]
   + 16 x[6] * x[29] + 8 x[6] * x[30] + 10 x[6] * x[31] - 16 x[6] * x[33]
   - 8 x[6] * x[34] + 8 x[6] * x[35] - 4 x[6] * x[36] - 4 x[6] * x[37]
   - 14 x[6] * x[38] - 14 x[6] * x[39] - 14 x[7] ^2 + 20 x[7] * x[8]
   + 18 x[7] * x[9] + 16 x[7] * x[10] + 14 x[7] * x[11] + 18 x[7] * x[12]
   + 4 x[7] * x[13] - 16 x[7] * x[14] + 12 x[7] * x[15] - 18 x[7] * x[16]
   - 18 x[7] * x[17] - 4 x[7] * x[18] + 20 x[7] * x[19] - 18 x[7] * x[20]
   - 12 x[7] * x[21] + 6 x[7] * x[22] + 16 x[7] * x[23] + 12 x[7] * x[24]
   + 12 x[7] * x[25] - 18 x[7] * x[26] - 6 x[7] * x[27] + 10 x[7] * x[28]
   - 8 x[7] * x[29] - 10 x[7] * x[30] + 14 x[7] * x[31] + 8 x[7] * x[32]
   + 6 x[7] * x[33] + 14 x[7] * x[34] - 20 x[7] * x[35] - 6 x[7] * x[36]
   - 2 x[7] * x[37] - 14 x[7] * x[38] - 8 x[7] * x[39] + 20 x[8] ^2
   - 16 x[8] * x[9] - 4 x[8] * x[10] - 16 x[8] * x[11] - 6 x[8] * x[12]
   - 14 x[8] * x[13] + 10 x[8] * x[14] - 8 x[8] * x[15] - 10 x[8] * x[16]
   + 6 x[8] * x[17] + 10 x[8] * x[18] + 2 x[8] * x[19] + 20 x[8] * x[20]
   - 20 x[8] * x[21] + 10 x[8] * x[22] - 20 x[8] * x[23] - 2 x[8] * x[24]
   + 4 x[8] * x[25] - 4 x[8] * x[26] + 2 x[8] * x[27] - 20 x[8] * x[28]
   - 10 x[8] * x[29] + 10 x[8] * x[30] - 6 x[8] * x[31] + 6 x[8] * x[32]
   - 6 x[8] * x[33] - 18 x[8] * x[34] + 10 x[8] * x[35] - 2 x[8] * x[37]
   - 18 x[8] * x[38] - 2 x[8] * x[39] - 2 x[9] ^2 + 18 x[9] * x[10]
   + 16 x[9] * x[11] + 8 x[9] * x[12] + 2 x[9] * x[13] + 4 x[9] * x[14]
   + 16 x[9] * x[15] - 6 x[9] * x[16] - 8 x[9] * x[17] - 4 x[9] * x[18]
   - 20 x[9] * x[19] - 8 x[9] * x[20] + 16 x[9] * x[21] + 20 x[9] * x[23]
   - 18 x[9] * x[24] - 14 x[9] * x[25] + 16 x[9] * x[26] - 8 x[9] * x[27]
   - 14 x[9] * x[28] + 12 x[9] * x[29] - 20 x[9] * x[30] + 16 x[9] * x[31]
   + 12 x[9] * x[32] + 10 x[9] * x[33] + 16 x[9] * x[34] - 4 x[9] * x[35]
   + 20 x[9] * x[36] - 20 x[9] * x[37] - 12 x[9] * x[38] - 18 x[9] * x[39]
   + 2 x[10] ^2 - 20 x[10] * x[11] + 16 x[10] * x[12] + 8 x[10] * x[13]
   - 4 x[10] * x[14] + 10 x[10] * x[15] - 20 x[10] * x[16]
   - 12 x[10] * x[17] - 6 x[10] * x[18] - 6 x[10] * x[19]
   + 12 x[10] * x[20] + 16 x[10] * x[21] - 16 x[10] * x[23]
   - 12 x[10] * x[24] - 8 x[10] * x[25] + 20 x[10] * x[26]
   - 8 x[10] * x[27] - 18 x[10] * x[28] - 6 x[10] * x[29]
   - 16 x[10] * x[30] - 16 x[10] * x[31] - 10 x[10] * x[32]
   - 14 x[10] * x[33] + 8 x[10] * x[35] + 6 x[10] * x[36]
   + 20 x[10] * x[37] - 10 x[10] * x[38] + 8 x[10] * x[39] - 18 x[11] ^2
   + 18 x[11] * x[12] - 4 x[11] * x[13] + 10 x[11] * x[14]
   - 12 x[11] * x[16] + 8 x[11] * x[17] + 10 x[11] * x[18]
   + 10 x[11] * x[19] + 14 x[11] * x[20] + 18 x[11] * x[21]
   - 20 x[11] * x[22] + 2 x[11] * x[23] - 14 x[11] * x[24]
   - 14 x[11] * x[25] - 18 x[11] * x[26] + 6 x[11] * x[27]
   + 10 x[11] * x[28] - 16 x[11] * x[29] + 20 x[11] * x[30]
   + 6 x[11] * x[31] + 16 x[11] * x[32] + 14 x[11] * x[33]
   - 2 x[11] * x[34] - 12 x[11] * x[35] + 20 x[11] * x[36]
   + 6 x[11] * x[37] + 4 x[11] * x[38] - 4 x[11] * x[39] - 2 x[12] ^2
   - 4 x[12] * x[13] - 6 x[12] * x[14] + 6 x[12] * x[15] - 16 x[12] * x[16]
   + 2 x[12] * x[17] + 2 x[12] * x[18] + 18 x[12] * x[19]
   - 18 x[12] * x[20] + 10 x[12] * x[21] - 16 x[12] * x[23]
   - 14 x[12] * x[24] + 2 x[12] * x[25] - 2 x[12] * x[26]
   + 12 x[12] * x[27] - 2 x[12] * x[28] - 2 x[12] * x[29] - 2 x[12] * x[30]
   + 14 x[12] * x[31] + 4 x[12] * x[32] + 6 x[12] * x[33]
   - 14 x[12] * x[34] + 2 x[12] * x[35] + 14 x[12] * x[36]
   + 10 x[12] * x[37] - 12 x[12] * x[38] - 12 x[12] * x[39] + 4 x[13] ^2
   - 8 x[13] * x[14] - 14 x[13] * x[15] - 16 x[13] * x[16]
   - 14 x[13] * x[17] - 8 x[13] * x[18] - 20 x[13] * x[19]
   - 8 x[13] * x[20] - 14 x[13] * x[21] + 8 x[13] * x[22]
   - 14 x[13] * x[23] - 10 x[13] * x[24] + 20 x[13] * x[25]
   - 6 x[13] * x[26] - 16 x[13] * x[27] + 20 x[13] * x[28]
   - 4 x[13] * x[29] + 8 x[13] * x[30] - 2 x[13] * x[31] + 4 x[13] * x[32]
   - 12 x[13] * x[33] + 16 x[13] * x[34] + 8 x[13] * x[35]
   - 6 x[13] * x[36] - 18 x[13] * x[37] + 18 x[13] * x[38]
   - 12 x[13] * x[39] + 18 x[14] ^2 - 12 x[14] * x[15] - 18 x[14] * x[16]
   + 16 x[14] * x[17] + 6 x[14] * x[18] + 10 x[14] * x[19]
   + 8 x[14] * x[20] + 10 x[14] * x[21] + 6 x[14] * x[23]
   - 12 x[14] * x[24] + 12 x[14] * x[25] - 2 x[14] * x[26]
   - 10 x[14] * x[27] + 10 x[14] * x[29] - 12 x[14] * x[30]
   + 10 x[14] * x[31] - 4 x[14] * x[32] - 8 x[14] * x[33]
   - 18 x[14] * x[34] - 10 x[14] * x[35] + 20 x[14] * x[36]
   - 12 x[14] * x[37] + 2 x[14] * x[38] - 18 x[14] * x[39] - 14 x[15] ^2
   + 10 x[15] * x[16] + 18 x[15] * x[17] - 4 x[15] * x[18]
   - 16 x[15] * x[19] - 16 x[15] * x[20] + 18 x[15] * x[21]
   - 4 x[15] * x[22] - 20 x[15] * x[23] + 18 x[15] * x[24]
   - 8 x[15] * x[25] - 20 x[15] * x[26] + 12 x[15] * x[27]
   + 18 x[15] * x[28] - 2 x[15] * x[29] - 4 x[15] * x[30] - 2 x[15] * x[31]
   + 12 x[15] * x[32] + 16 x[15] * x[33] + 10 x[15] * x[34]
   + 14 x[15] * x[35] + 6 x[15] * x[36] - 20 x[15] * x[37]
   + 16 x[15] * x[38] + 18 x[15] * x[39] + 16 x[16] * x[18]
   + 2 x[16] * x[19] - 12 x[16] * x[20] + 16 x[16] * x[22]
   - 10 x[16] * x[23] - 8 x[16] * x[24] - 18 x[16] * x[25]
   - 4 x[16] * x[26] - 12 x[16] * x[27] + 12 x[16] * x[28]
   + 14 x[16] * x[30] - 18 x[16] * x[31] - 2 x[16] * x[32]
   - 14 x[16] * x[33] + 2 x[16] * x[34] - 2 x[16] * x[35]
   - 14 x[16] * x[36] + 10 x[16] * x[37] - 4 x[16] * x[38]
   + 4 x[16] * x[39] - 18 x[17] ^2 - 2 x[17] * x[18] + 18 x[17] * x[19]
   + 6 x[17] * x[20] - 4 x[17] * x[21] + 14 x[17] * x[22]
   + 18 x[17] * x[23] - 20 x[17] * x[24] + 4 x[17] * x[25]
   - 6 x[17] * x[26] - 4 x[17] * x[27] + 10 x[17] * x[28] - 4 x[17] * x[29]
   + 10 x[17] * x[30] - 20 x[17] * x[31] - 2 x[17] * x[32]
   + 6 x[17] * x[33] + 16 x[17] * x[34] - 2 x[17] * x[35] - 8 x[17] * x[36]
   - 14 x[17] * x[37] - 6 x[17] * x[38] + 2 x[17] * x[39] - 8 x[18] ^2
   - 6 x[18] * x[19] - 2 x[18] * x[20] + 2 x[18] * x[21] - 6 x[18] * x[22]
   + 18 x[18] * x[23] + 12 x[18] * x[24] - 4 x[18] * x[25]
   + 10 x[18] * x[26] + 10 x[18] * x[27] - 6 x[18] * x[28]
   - 2 x[18] * x[29] + 8 x[18] * x[30] - 2 x[18] * x[31] - 4 x[18] * x[32]
   - 16 x[18] * x[33] - 14 x[18] * x[35] + 18 x[18] * x[36]
   - 14 x[18] * x[37] - 20 x[18] * x[38] + 4 x[18] * x[39] - 4 x[19] ^2
   - 12 x[19] * x[20] + 18 x[19] * x[21] - 20 x[19] * x[22]
   - 18 x[19] * x[23] + 14 x[19] * x[24] + 6 x[19] * x[25]
   + 6 x[19] * x[26] - 12 x[19] * x[27] + 14 x[19] * x[28]
   - 14 x[19] * x[29] - 20 x[19] * x[30] + 10 x[19] * x[31]
   + 6 x[19] * x[32] + 12 x[19] * x[33] + 14 x[19] * x[34]
   + 20 x[19] * x[35] - 4 x[19] * x[36] + 18 x[19] * x[37]
   + 14 x[19] * x[38] + 2 x[19] * x[39] + 10 x[20] ^2 + 18 x[20] * x[21]
   - 6 x[20] * x[22] - 10 x[20] * x[23] - 8 x[20] * x[24]
   - 12 x[20] * x[25] - 8 x[20] * x[26] + 20 x[20] * x[27]
   + 4 x[20] * x[28] + 16 x[20] * x[29] - 12 x[20] * x[30]
   - 4 x[20] * x[31] + 8 x[20] * x[32] + 8 x[20] * x[33] - 18 x[20] * x[34]
   - 18 x[20] * x[35] - 4 x[20] * x[36] - 8 x[20] * x[37]
   + 10 x[20] * x[38] - 4 x[20] * x[39] - 2 x[21] ^2 - 14 x[21] * x[22]
   - 18 x[21] * x[23] + 6 x[21] * x[24] + 6 x[21] * x[26] - 6 x[21] * x[27]
   + 16 x[21] * x[28] + 18 x[21] * x[29] - 18 x[21] * x[30]
   + 2 x[21] * x[31] + 4 x[21] * x[32] - 14 x[21] * x[33]
   + 10 x[21] * x[34] - 6 x[21] * x[35] - 18 x[21] * x[36]
   + 4 x[21] * x[37] + 4 x[21] * x[38] - 4 x[21] * x[39] + 14 x[22] ^2
   + 18 x[22] * x[24] - 20 x[22] * x[25] - 12 x[22] * x[26]
   - 8 x[22] * x[27] + 2 x[22] * x[28] - 16 x[22] * x[29] - 4 x[22] * x[30]
   + 14 x[22] * x[31] + 12 x[22] * x[32] + 8 x[22] * x[33]
   + 6 x[22] * x[34] + 12 x[22] * x[35] + 18 x[22] * x[36]
   - 16 x[22] * x[37] + 12 x[22] * x[38] + 8 x[22] * x[39]
   - 2 x[23] * x[24] - 14 x[23] * x[25] + 18 x[23] * x[26]
   - 20 x[23] * x[27] + 6 x[23] * x[28] - 8 x[23] * x[29] - 6 x[23] * x[30]
   + 2 x[23] * x[31] - 6 x[23] * x[32] - 16 x[23] * x[33]
   + 20 x[23] * x[34] + 16 x[23] * x[36] - 10 x[23] * x[37]
   + 12 x[23] * x[38] + 10 x[23] * x[39] + 20 x[24] ^2 + 8 x[24] * x[25]
   + 4 x[24] * x[26] + 12 x[24] * x[27] - 2 x[24] * x[28]
   + 18 x[24] * x[29] - 18 x[24] * x[30] + 18 x[24] * x[31]
   - 8 x[24] * x[32] + 2 x[24] * x[33] + 18 x[24] * x[34] - 8 x[24] * x[35]
   + 14 x[24] * x[36] - 8 x[24] * x[38] - 14 x[24] * x[39] + 12 x[25] ^2
   + 14 x[25] * x[26] - 10 x[25] * x[27] + 6 x[25] * x[28]
   - 20 x[25] * x[29] - 18 x[25] * x[30] - 2 x[25] * x[31]
   + 8 x[25] * x[32] - 6 x[25] * x[33] - 2 x[25] * x[34] + 4 x[25] * x[35]
   - 20 x[25] * x[36] + 8 x[25] * x[37] + 4 x[25] * x[38]
   + 14 x[25] * x[39] - 14 x[26] ^2 - 10 x[26] * x[27] - 18 x[26] * x[28]
   - 18 x[26] * x[29] + 6 x[26] * x[30] + 18 x[26] * x[31]
   - 2 x[26] * x[32] + 18 x[26] * x[33] + 4 x[26] * x[34] - 8 x[26] * x[35]
   - 10 x[26] * x[36] - 12 x[26] * x[37] + 20 x[26] * x[38]
   - 4 x[26] * x[39] - 18 x[27] ^2 - 16 x[27] * x[28] + 6 x[27] * x[30]
   - 12 x[27] * x[31] - 6 x[27] * x[32] + 4 x[27] * x[33]
   + 10 x[27] * x[34] + 4 x[27] * x[35] + 18 x[27] * x[36]
   + 16 x[27] * x[37] - 16 x[27] * x[38] - 10 x[27] * x[39] - 16 x[28] ^2
   + 14 x[28] * x[29] - 18 x[28] * x[30] - 16 x[28] * x[31]
   - 6 x[28] * x[32] - 4 x[28] * x[33] + 8 x[28] * x[34] + 2 x[28] * x[35]
   - 2 x[28] * x[36] + 16 x[28] * x[37] - 6 x[28] * x[39] + 4 x[29] ^2
   - 8 x[29] * x[31] - 4 x[29] * x[32] + 8 x[29] * x[33] + 4 x[29] * x[34]
   - 14 x[29] * x[35] + 12 x[29] * x[36] + 8 x[29] * x[37]
   + 16 x[29] * x[38] + 20 x[29] * x[39] - 16 x[30] ^2 + 16 x[30] * x[31]
   + 12 x[30] * x[32] - 10 x[30] * x[33] + 8 x[30] * x[34]
   + 8 x[30] * x[35] + 2 x[30] * x[36] - 20 x[30] * x[37]
   - 16 x[30] * x[38] - 20 x[30] * x[39] - 10 x[31] ^2 - 16 x[31] * x[32]
   + 20 x[31] * x[33] + 2 x[31] * x[34] + 20 x[31] * x[35]
   + 18 x[31] * x[36] - 6 x[31] * x[37] - 14 x[31] * x[38]
   + 16 x[31] * x[39] + 12 x[32] ^2 + 20 x[32] * x[33] + 18 x[32] * x[34]
   - 18 x[32] * x[35] - 20 x[32] * x[37] + 10 x[32] * x[38]
   - 10 x[32] * x[39] - 10 x[33] ^2 + 20 x[33] * x[35] + 6 x[33] * x[36]
   - 10 x[33] * x[37] - 4 x[33] * x[38] + 10 x[33] * x[39] + 14 x[34] ^2
   + 8 x[34] * x[35] + 6 x[34] * x[36] - 6 x[34] * x[37] - 14 x[34] * x[38]
   - 14 x[34] * x[39] + 2 x[35] ^2 + 16 x[35] * x[36] - 10 x[35] * x[37]
   - 20 x[35] * x[38] + 16 x[35] * x[39] - 16 x[36] ^2 - 10 x[36] * x[37]
   + 16 x[36] * x[38] - 4 x[36] * x[39] + 20 x[37] ^2 + 16 x[37] * x[38]
   - 2 x[37] * x[39] - 8 x[38] ^2 - 14 x[38] * x[39] - 20 x[39] ^2 ] / 2 
Subject To
Bounds
Binaries
 x[0] x[1] x[2] x[3] x[4] x[5] x[6] x[7] x[8] x[9] x[10] x[11] x[12] x[13]
 x[14] x[15] x[16] x[17] x[18] x[19] x[20] x[21] x[22] x[23] x[24] x[25]
 x[26] x[27] x[28] x[29] x[30] x[31] x[32] x[33] x[34] x[35] x[36] x[37]
 x[38] x[39]
End
